$instance size is  1000
letting capacity be  252984
letting items be new type enum { 
a1,a2,a3,a4,a5,a6,a7,a8,a9,a10,a11,a12,a13,a14,a15,a16,a17,a18,a19,a20,a21,a22,a23,a24,a25,a26,a27,a28,a29,a30,a31,a32,a33,a34,a35,a36,a37,a38,a39,a40,a41,a42,a43,a44,a45,a46,a47,a48,a49,a50,a51,a52,a53,a54,a55,a56,a57,a58,a59,a60,a61,a62,a63,a64,a65,a66,a67,a68,a69,a70,a71,a72,a73,a74,a75,a76,a77,a78,a79,a80,a81,a82,a83,a84,a85,a86,a87,a88,a89,a90,a91,a92,a93,a94,a95,a96,a97,a98,a99,a100,a101,a102,a103,a104,a105,a106,a107,a108,a109,a110,a111,a112,a113,a114,a115,a116,a117,a118,a119,a120,a121,a122,a123,a124,a125,a126,a127,a128,a129,a130,a131,a132,a133,a134,a135,a136,a137,a138,a139,a140,a141,a142,a143,a144,a145,a146,a147,a148,a149,a150,a151,a152,a153,a154,a155,a156,a157,a158,a159,a160,a161,a162,a163,a164,a165,a166,a167,a168,a169,a170,a171,a172,a173,a174,a175,a176,a177,a178,a179,a180,a181,a182,a183,a184,a185,a186,a187,a188,a189,a190,a191,a192,a193,a194,a195,a196,a197,a198,a199,a200,a201,a202,a203,a204,a205,a206,a207,a208,a209,a210,a211,a212,a213,a214,a215,a216,a217,a218,a219,a220,a221,a222,a223,a224,a225,a226,a227,a228,a229,a230,a231,a232,a233,a234,a235,a236,a237,a238,a239,a240,a241,a242,a243,a244,a245,a246,a247,a248,a249,a250,a251,a252,a253,a254,a255,a256,a257,a258,a259,a260,a261,a262,a263,a264,a265,a266,a267,a268,a269,a270,a271,a272,a273,a274,a275,a276,a277,a278,a279,a280,a281,a282,a283,a284,a285,a286,a287,a288,a289,a290,a291,a292,a293,a294,a295,a296,a297,a298,a299,a300,a301,a302,a303,a304,a305,a306,a307,a308,a309,a310,a311,a312,a313,a314,a315,a316,a317,a318,a319,a320,a321,a322,a323,a324,a325,a326,a327,a328,a329,a330,a331,a332,a333,a334,a335,a336,a337,a338,a339,a340,a341,a342,a343,a344,a345,a346,a347,a348,a349,a350,a351,a352,a353,a354,a355,a356,a357,a358,a359,a360,a361,a362,a363,a364,a365,a366,a367,a368,a369,a370,a371,a372,a373,a374,a375,a376,a377,a378,a379,a380,a381,a382,a383,a384,a385,a386,a387,a388,a389,a390,a391,a392,a393,a394,a395,a396,a397,a398,a399,a400,a401,a402,a403,a404,a405,a406,a407,a408,a409,a410,a411,a412,a413,a414,a415,a416,a417,a418,a419,a420,a421,a422,a423,a424,a425,a426,a427,a428,a429,a430,a431,a432,a433,a434,a435,a436,a437,a438,a439,a440,a441,a442,a443,a444,a445,a446,a447,a448,a449,a450,a451,a452,a453,a454,a455,a456,a457,a458,a459,a460,a461,a462,a463,a464,a465,a466,a467,a468,a469,a470,a471,a472,a473,a474,a475,a476,a477,a478,a479,a480,a481,a482,a483,a484,a485,a486,a487,a488,a489,a490,a491,a492,a493,a494,a495,a496,a497,a498,a499,a500,a501,a502,a503,a504,a505,a506,a507,a508,a509,a510,a511,a512,a513,a514,a515,a516,a517,a518,a519,a520,a521,a522,a523,a524,a525,a526,a527,a528,a529,a530,a531,a532,a533,a534,a535,a536,a537,a538,a539,a540,a541,a542,a543,a544,a545,a546,a547,a548,a549,a550,a551,a552,a553,a554,a555,a556,a557,a558,a559,a560,a561,a562,a563,a564,a565,a566,a567,a568,a569,a570,a571,a572,a573,a574,a575,a576,a577,a578,a579,a580,a581,a582,a583,a584,a585,a586,a587,a588,a589,a590,a591,a592,a593,a594,a595,a596,a597,a598,a599,a600,a601,a602,a603,a604,a605,a606,a607,a608,a609,a610,a611,a612,a613,a614,a615,a616,a617,a618,a619,a620,a621,a622,a623,a624,a625,a626,a627,a628,a629,a630,a631,a632,a633,a634,a635,a636,a637,a638,a639,a640,a641,a642,a643,a644,a645,a646,a647,a648,a649,a650,a651,a652,a653,a654,a655,a656,a657,a658,a659,a660,a661,a662,a663,a664,a665,a666,a667,a668,a669,a670,a671,a672,a673,a674,a675,a676,a677,a678,a679,a680,a681,a682,a683,a684,a685,a686,a687,a688,a689,a690,a691,a692,a693,a694,a695,a696,a697,a698,a699,a700,a701,a702,a703,a704,a705,a706,a707,a708,a709,a710,a711,a712,a713,a714,a715,a716,a717,a718,a719,a720,a721,a722,a723,a724,a725,a726,a727,a728,a729,a730,a731,a732,a733,a734,a735,a736,a737,a738,a739,a740,a741,a742,a743,a744,a745,a746,a747,a748,a749,a750,a751,a752,a753,a754,a755,a756,a757,a758,a759,a760,a761,a762,a763,a764,a765,a766,a767,a768,a769,a770,a771,a772,a773,a774,a775,a776,a777,a778,a779,a780,a781,a782,a783,a784,a785,a786,a787,a788,a789,a790,a791,a792,a793,a794,a795,a796,a797,a798,a799,a800,a801,a802,a803,a804,a805,a806,a807,a808,a809,a810,a811,a812,a813,a814,a815,a816,a817,a818,a819,a820,a821,a822,a823,a824,a825,a826,a827,a828,a829,a830,a831,a832,a833,a834,a835,a836,a837,a838,a839,a840,a841,a842,a843,a844,a845,a846,a847,a848,a849,a850,a851,a852,a853,a854,a855,a856,a857,a858,a859,a860,a861,a862,a863,a864,a865,a866,a867,a868,a869,a870,a871,a872,a873,a874,a875,a876,a877,a878,a879,a880,a881,a882,a883,a884,a885,a886,a887,a888,a889,a890,a891,a892,a893,a894,a895,a896,a897,a898,a899,a900,a901,a902,a903,a904,a905,a906,a907,a908,a909,a910,a911,a912,a913,a914,a915,a916,a917,a918,a919,a920,a921,a922,a923,a924,a925,a926,a927,a928,a929,a930,a931,a932,a933,a934,a935,a936,a937,a938,a939,a940,a941,a942,a943,a944,a945,a946,a947,a948,a949,a950,a951,a952,a953,a954,a955,a956,a957,a958,a959,a960,a961,a962,a963,a964,a965,a966,a967,a968,a969,a970,a971,a972,a973,a974,a975,a976,a977,a978,a979,a980,a981,a982,a983,a984,a985,a986,a987,a988,a989,a990,a991,a992,a993,a994,a995,a996,a997,a998,a999,a1000
}
letting weight be function (
a1 --> 586,a2 --> 915,a3 --> 156,a4 --> 272,a5 --> 278,a6 --> 629,a7 --> 198,a8 --> 632,a9 --> 435,a10 --> 991,a11 --> 971,a12 --> 15,a13 --> 383,a14 --> 822,a15 --> 83,a16 --> 640,a17 --> 170,a18 --> 470,a19 --> 687,a20 --> 6,a21 --> 286,a22 --> 347,a23 --> 472,a24 --> 564,a25 --> 693,a26 --> 483,a27 --> 404,a28 --> 532,a29 --> 294,a30 --> 917,a31 --> 377,a32 --> 716,a33 --> 80,a34 --> 931,a35 --> 600,a36 --> 217,a37 --> 205,a38 --> 979,a39 --> 683,a40 --> 904,a41 --> 568,a42 --> 986,a43 --> 134,a44 --> 503,a45 --> 63,a46 --> 927,a47 --> 865,a48 --> 913,a49 --> 185,a50 --> 30,a51 --> 939,a52 --> 479,a53 --> 215,a54 --> 409,a55 --> 1000,a56 --> 494,a57 --> 423,a58 --> 560,a59 --> 92,a60 --> 199,a61 --> 420,a62 --> 698,a63 --> 278,a64 --> 394,a65 --> 623,a66 --> 729,a67 --> 309,a68 --> 874,a69 --> 865,a70 --> 538,a71 --> 877,a72 --> 307,a73 --> 285,a74 --> 474,a75 --> 171,a76 --> 390,a77 --> 338,a78 --> 9,a79 --> 20,a80 --> 884,a81 --> 271,a82 --> 754,a83 --> 402,a84 --> 702,a85 --> 925,a86 --> 25,a87 --> 686,a88 --> 547,a89 --> 168,a90 --> 259,a91 --> 166,a92 --> 706,a93 --> 590,a94 --> 449,a95 --> 184,a96 --> 147,a97 --> 781,a98 --> 36,a99 --> 165,a100 --> 361,a101 --> 153,a102 --> 226,a103 --> 807,a104 --> 666,a105 --> 859,a106 --> 767,a107 --> 978,a108 --> 13,a109 --> 698,a110 --> 869,a111 --> 998,a112 --> 770,a113 --> 174,a114 --> 780,a115 --> 434,a116 --> 149,a117 --> 71,a118 --> 89,a119 --> 466,a120 --> 131,a121 --> 546,a122 --> 699,a123 --> 610,a124 --> 587,a125 --> 236,a126 --> 881,a127 --> 161,a128 --> 542,a129 --> 116,a130 --> 21,a131 --> 631,a132 --> 607,a133 --> 532,a134 --> 707,a135 --> 510,a136 --> 52,a137 --> 321,a138 --> 482,a139 --> 483,a140 --> 722,a141 --> 230,a142 --> 457,a143 --> 726,a144 --> 76,a145 --> 180,a146 --> 115,a147 --> 213,a148 --> 555,a149 --> 541,a150 --> 419,a151 --> 493,a152 --> 15,a153 --> 996,a154 --> 864,a155 --> 601,a156 --> 580,a157 --> 678,a158 --> 457,a159 --> 400,a160 --> 909,a161 --> 659,a162 --> 354,a163 --> 778,a164 --> 349,a165 --> 93,a166 --> 405,a167 --> 411,a168 --> 616,a169 --> 966,a170 --> 913,a171 --> 511,a172 --> 326,a173 --> 518,a174 --> 798,a175 --> 395,a176 --> 680,a177 --> 243,a178 --> 102,a179 --> 746,a180 --> 617,a181 --> 855,a182 --> 518,a183 --> 477,a184 --> 613,a185 --> 981,a186 --> 378,a187 --> 233,a188 --> 796,a189 --> 308,a190 --> 419,a191 --> 757,a192 --> 64,a193 --> 674,a194 --> 484,a195 --> 984,a196 --> 154,a197 --> 697,a198 --> 968,a199 --> 695,a200 --> 872,a201 --> 956,a202 --> 454,a203 --> 92,a204 --> 666,a205 --> 522,a206 --> 597,a207 --> 231,a208 --> 728,a209 --> 954,a210 --> 743,a211 --> 785,a212 --> 117,a213 --> 349,a214 --> 961,a215 --> 596,a216 --> 783,a217 --> 399,a218 --> 321,a219 --> 940,a220 --> 235,a221 --> 390,a222 --> 719,a223 --> 976,a224 --> 117,a225 --> 961,a226 --> 708,a227 --> 776,a228 --> 78,a229 --> 33,a230 --> 53,a231 --> 256,a232 --> 459,a233 --> 530,a234 --> 976,a235 --> 452,a236 --> 285,a237 --> 299,a238 --> 389,a239 --> 42,a240 --> 539,a241 --> 601,a242 --> 741,a243 --> 130,a244 --> 856,a245 --> 456,a246 --> 526,a247 --> 824,a248 --> 579,a249 --> 305,a250 --> 534,a251 --> 520,a252 --> 26,a253 --> 716,a254 --> 347,a255 --> 753,a256 --> 85,a257 --> 848,a258 --> 616,a259 --> 707,a260 --> 273,a261 --> 237,a262 --> 370,a263 --> 88,a264 --> 194,a265 --> 841,a266 --> 183,a267 --> 846,a268 --> 831,a269 --> 703,a270 --> 733,a271 --> 922,a272 --> 617,a273 --> 320,a274 --> 297,a275 --> 550,a276 --> 195,a277 --> 246,a278 --> 749,a279 --> 259,a280 --> 579,a281 --> 148,a282 --> 607,a283 --> 551,a284 --> 871,a285 --> 695,a286 --> 504,a287 --> 840,a288 --> 113,a289 --> 207,a290 --> 458,a291 --> 967,a292 --> 579,a293 --> 358,a294 --> 593,a295 --> 222,a296 --> 11,a297 --> 47,a298 --> 59,a299 --> 73,a300 --> 607,a301 --> 936,a302 --> 375,a303 --> 928,a304 --> 794,a305 --> 568,a306 --> 569,a307 --> 259,a308 --> 269,a309 --> 593,a310 --> 284,a311 --> 924,a312 --> 222,a313 --> 966,a314 --> 606,a315 --> 944,a316 --> 412,a317 --> 125,a318 --> 215,a319 --> 582,a320 --> 311,a321 --> 734,a322 --> 353,a323 --> 437,a324 --> 140,a325 --> 563,a326 --> 985,a327 --> 178,a328 --> 895,a329 --> 509,a330 --> 212,a331 --> 87,a332 --> 984,a333 --> 124,a334 --> 370,a335 --> 957,a336 --> 62,a337 --> 799,a338 --> 759,a339 --> 778,a340 --> 950,a341 --> 295,a342 --> 940,a343 --> 83,a344 --> 140,a345 --> 505,a346 --> 753,a347 --> 715,a348 --> 495,a349 --> 408,a350 --> 798,a351 --> 841,a352 --> 161,a353 --> 86,a354 --> 125,a355 --> 886,a356 --> 877,a357 --> 75,a358 --> 666,a359 --> 84,a360 --> 887,a361 --> 820,a362 --> 682,a363 --> 679,a364 --> 935,a365 --> 341,a366 --> 719,a367 --> 943,a368 --> 837,a369 --> 471,a370 --> 41,a371 --> 532,a372 --> 830,a373 --> 10,a374 --> 158,a375 --> 648,a376 --> 733,a377 --> 531,a378 --> 106,a379 --> 128,a380 --> 770,a381 --> 551,a382 --> 71,a383 --> 955,a384 --> 414,a385 --> 630,a386 --> 750,a387 --> 489,a388 --> 980,a389 --> 560,a390 --> 180,a391 --> 708,a392 --> 650,a393 --> 227,a394 --> 462,a395 --> 674,a396 --> 925,a397 --> 362,a398 --> 964,a399 --> 160,a400 --> 24,a401 --> 190,a402 --> 713,a403 --> 120,a404 --> 525,a405 --> 497,a406 --> 976,a407 --> 836,a408 --> 785,a409 --> 830,a410 --> 472,a411 --> 696,a412 --> 20,a413 --> 794,a414 --> 401,a415 --> 355,a416 --> 782,a417 --> 109,a418 --> 605,a419 --> 446,a420 --> 563,a421 --> 473,a422 --> 583,a423 --> 290,a424 --> 543,a425 --> 969,a426 --> 942,a427 --> 30,a428 --> 867,a429 --> 803,a430 --> 762,a431 --> 295,a432 --> 45,a433 --> 246,a434 --> 414,a435 --> 558,a436 --> 19,a437 --> 780,a438 --> 284,a439 --> 693,a440 --> 344,a441 --> 993,a442 --> 723,a443 --> 329,a444 --> 989,a445 --> 849,a446 --> 268,a447 --> 881,a448 --> 313,a449 --> 573,a450 --> 792,a451 --> 380,a452 --> 217,a453 --> 790,a454 --> 779,a455 --> 159,a456 --> 368,a457 --> 344,a458 --> 740,a459 --> 509,a460 --> 287,a461 --> 112,a462 --> 194,a463 --> 628,a464 --> 438,a465 --> 582,a466 --> 96,a467 --> 318,a468 --> 144,a469 --> 572,a470 --> 553,a471 --> 524,a472 --> 275,a473 --> 236,a474 --> 20,a475 --> 573,a476 --> 541,a477 --> 756,a478 --> 904,a479 --> 229,a480 --> 200,a481 --> 213,a482 --> 273,a483 --> 542,a484 --> 542,a485 --> 368,a486 --> 545,a487 --> 386,a488 --> 964,a489 --> 919,a490 --> 135,a491 --> 413,a492 --> 3,a493 --> 178,a494 --> 859,a495 --> 583,a496 --> 410,a497 --> 446,a498 --> 311,a499 --> 336,a500 --> 861,a501 --> 903,a502 --> 375,a503 --> 58,a504 --> 961,a505 --> 719,a506 --> 353,a507 --> 42,a508 --> 660,a509 --> 132,a510 --> 325,a511 --> 495,a512 --> 329,a513 --> 61,a514 --> 958,a515 --> 561,a516 --> 994,a517 --> 549,a518 --> 927,a519 --> 874,a520 --> 780,a521 --> 606,a522 --> 607,a523 --> 616,a524 --> 518,a525 --> 495,a526 --> 421,a527 --> 672,a528 --> 553,a529 --> 599,a530 --> 115,a531 --> 988,a532 --> 448,a533 --> 22,a534 --> 670,a535 --> 230,a536 --> 681,a537 --> 482,a538 --> 652,a539 --> 666,a540 --> 435,a541 --> 607,a542 --> 148,a543 --> 743,a544 --> 622,a545 --> 358,a546 --> 961,a547 --> 942,a548 --> 773,a549 --> 55,a550 --> 503,a551 --> 841,a552 --> 998,a553 --> 462,a554 --> 508,a555 --> 181,a556 --> 224,a557 --> 249,a558 --> 472,a559 --> 280,a560 --> 283,a561 --> 783,a562 --> 180,a563 --> 571,a564 --> 19,a565 --> 610,a566 --> 990,a567 --> 880,a568 --> 197,a569 --> 701,a570 --> 795,a571 --> 652,a572 --> 176,a573 --> 255,a574 --> 795,a575 --> 134,a576 --> 757,a577 --> 182,a578 --> 329,a579 --> 886,a580 --> 439,a581 --> 708,a582 --> 952,a583 --> 430,a584 --> 579,a585 --> 989,a586 --> 830,a587 --> 268,a588 --> 273,a589 --> 6,a590 --> 956,a591 --> 485,a592 --> 24,a593 --> 55,a594 --> 467,a595 --> 99,a596 --> 533,a597 --> 738,a598 --> 608,a599 --> 120,a600 --> 892,a601 --> 985,a602 --> 544,a603 --> 960,a604 --> 341,a605 --> 851,a606 --> 788,a607 --> 554,a608 --> 632,a609 --> 535,a610 --> 62,a611 --> 7,a612 --> 497,a613 --> 262,a614 --> 82,a615 --> 425,a616 --> 156,a617 --> 5,a618 --> 237,a619 --> 469,a620 --> 545,a621 --> 624,a622 --> 153,a623 --> 561,a624 --> 120,a625 --> 784,a626 --> 566,a627 --> 614,a628 --> 782,a629 --> 317,a630 --> 346,a631 --> 150,a632 --> 182,a633 --> 213,a634 --> 378,a635 --> 742,a636 --> 713,a637 --> 179,a638 --> 830,a639 --> 221,a640 --> 966,a641 --> 87,a642 --> 264,a643 --> 691,a644 --> 129,a645 --> 428,a646 --> 581,a647 --> 874,a648 --> 8,a649 --> 116,a650 --> 66,a651 --> 56,a652 --> 104,a653 --> 118,a654 --> 927,a655 --> 675,a656 --> 252,a657 --> 209,a658 --> 495,a659 --> 99,a660 --> 934,a661 --> 237,a662 --> 734,a663 --> 690,a664 --> 540,a665 --> 8,a666 --> 953,a667 --> 287,a668 --> 555,a669 --> 303,a670 --> 161,a671 --> 950,a672 --> 583,a673 --> 608,a674 --> 447,a675 --> 873,a676 --> 793,a677 --> 750,a678 --> 977,a679 --> 738,a680 --> 486,a681 --> 468,a682 --> 883,a683 --> 677,a684 --> 991,a685 --> 40,a686 --> 943,a687 --> 619,a688 --> 763,a689 --> 449,a690 --> 917,a691 --> 425,a692 --> 397,a693 --> 874,a694 --> 826,a695 --> 141,a696 --> 428,a697 --> 700,a698 --> 469,a699 --> 281,a700 --> 621,a701 --> 215,a702 --> 637,a703 --> 229,a704 --> 139,a705 --> 777,a706 --> 452,a707 --> 977,a708 --> 944,a709 --> 700,a710 --> 454,a711 --> 39,a712 --> 704,a713 --> 396,a714 --> 610,a715 --> 781,a716 --> 796,a717 --> 582,a718 --> 383,a719 --> 633,a720 --> 364,a721 --> 354,a722 --> 408,a723 --> 986,a724 --> 428,a725 --> 922,a726 --> 720,a727 --> 429,a728 --> 743,a729 --> 24,a730 --> 838,a731 --> 342,a732 --> 423,a733 --> 875,a734 --> 442,a735 --> 498,a736 --> 282,a737 --> 730,a738 --> 629,a739 --> 819,a740 --> 453,a741 --> 318,a742 --> 637,a743 --> 283,a744 --> 781,a745 --> 644,a746 --> 254,a747 --> 543,a748 --> 689,a749 --> 665,a750 --> 993,a751 --> 253,a752 --> 177,a753 --> 739,a754 --> 504,a755 --> 814,a756 --> 873,a757 --> 214,a758 --> 255,a759 --> 940,a760 --> 982,a761 --> 500,a762 --> 989,a763 --> 692,a764 --> 119,a765 --> 979,a766 --> 752,a767 --> 917,a768 --> 205,a769 --> 459,a770 --> 884,a771 --> 775,a772 --> 51,a773 --> 949,a774 --> 988,a775 --> 781,a776 --> 878,a777 --> 140,a778 --> 263,a779 --> 762,a780 --> 109,a781 --> 679,a782 --> 268,a783 --> 719,a784 --> 313,a785 --> 189,a786 --> 141,a787 --> 91,a788 --> 958,a789 --> 783,a790 --> 407,a791 --> 1,a792 --> 504,a793 --> 664,a794 --> 912,a795 --> 869,a796 --> 614,a797 --> 936,a798 --> 568,a799 --> 358,a800 --> 626,a801 --> 828,a802 --> 32,a803 --> 453,a804 --> 727,a805 --> 647,a806 --> 717,a807 --> 244,a808 --> 801,a809 --> 445,a810 --> 325,a811 --> 968,a812 --> 616,a813 --> 994,a814 --> 376,a815 --> 591,a816 --> 148,a817 --> 638,a818 --> 232,a819 --> 450,a820 --> 201,a821 --> 907,a822 --> 57,a823 --> 876,a824 --> 117,a825 --> 325,a826 --> 681,a827 --> 984,a828 --> 973,a829 --> 48,a830 --> 200,a831 --> 54,a832 --> 227,a833 --> 150,a834 --> 665,a835 --> 686,a836 --> 594,a837 --> 94,a838 --> 943,a839 --> 994,a840 --> 511,a841 --> 349,a842 --> 600,a843 --> 80,a844 --> 114,a845 --> 520,a846 --> 229,a847 --> 334,a848 --> 914,a849 --> 647,a850 --> 575,a851 --> 252,a852 --> 380,a853 --> 948,a854 --> 315,a855 --> 725,a856 --> 981,a857 --> 913,a858 --> 670,a859 --> 141,a860 --> 930,a861 --> 965,a862 --> 394,a863 --> 763,a864 --> 751,a865 --> 319,a866 --> 391,a867 --> 432,a868 --> 412,a869 --> 65,a870 --> 890,a871 --> 966,a872 --> 369,a873 --> 798,a874 --> 48,a875 --> 98,a876 --> 875,a877 --> 155,a878 --> 707,a879 --> 162,a880 --> 964,a881 --> 753,a882 --> 204,a883 --> 407,a884 --> 862,a885 --> 217,a886 --> 414,a887 --> 532,a888 --> 608,a889 --> 270,a890 --> 161,a891 --> 580,a892 --> 543,a893 --> 150,a894 --> 412,a895 --> 895,a896 --> 206,a897 --> 273,a898 --> 522,a899 --> 245,a900 --> 382,a901 --> 336,a902 --> 526,a903 --> 449,a904 --> 645,a905 --> 70,a906 --> 782,a907 --> 591,a908 --> 587,a909 --> 2,a910 --> 130,a911 --> 45,a912 --> 128,a913 --> 619,a914 --> 989,a915 --> 541,a916 --> 151,a917 --> 986,a918 --> 211,a919 --> 889,a920 --> 590,a921 --> 171,a922 --> 737,a923 --> 973,a924 --> 227,a925 --> 747,a926 --> 208,a927 --> 497,a928 --> 256,a929 --> 299,a930 --> 434,a931 --> 292,a932 --> 439,a933 --> 979,a934 --> 523,a935 --> 673,a936 --> 709,a937 --> 63,a938 --> 920,a939 --> 149,a940 --> 147,a941 --> 861,a942 --> 899,a943 --> 78,a944 --> 808,a945 --> 860,a946 --> 940,a947 --> 525,a948 --> 400,a949 --> 591,a950 --> 897,a951 --> 340,a952 --> 183,a953 --> 823,a954 --> 950,a955 --> 337,a956 --> 822,a957 --> 876,a958 --> 629,a959 --> 257,a960 --> 949,a961 --> 964,a962 --> 432,a963 --> 405,a964 --> 278,a965 --> 922,a966 --> 73,a967 --> 911,a968 --> 64,a969 --> 704,a970 --> 416,a971 --> 757,a972 --> 641,a973 --> 756,a974 --> 676,a975 --> 365,a976 --> 506,a977 --> 782,a978 --> 40,a979 --> 335,a980 --> 719,a981 --> 504,a982 --> 976,a983 --> 694,a984 --> 396,a985 --> 92,a986 --> 601,a987 --> 206,a988 --> 864,a989 --> 25,a990 --> 355,a991 --> 319,a992 --> 413,a993 --> 254,a994 --> 634,a995 --> 872,a996 --> 717,a997 --> 293,a998 --> 728,a999 --> 300,a1000 --> 542
)
letting gain be function (
a1 --> 588,a2 --> 915,a3 --> 156,a4 --> 273,a5 --> 279,a6 --> 630,a7 --> 198,a8 --> 633,a9 --> 435,a10 --> 993,a11 --> 972,a12 --> 15,a13 --> 384,a14 --> 822,a15 --> 84,a16 --> 642,a17 --> 171,a18 --> 471,a19 --> 687,a20 --> 6,a21 --> 288,a22 --> 348,a23 --> 474,a24 --> 564,a25 --> 693,a26 --> 483,a27 --> 405,a28 --> 534,a29 --> 294,a30 --> 918,a31 --> 378,a32 --> 717,a33 --> 81,a34 --> 933,a35 --> 600,a36 --> 219,a37 --> 207,a38 --> 981,a39 --> 684,a40 --> 906,a41 --> 570,a42 --> 987,a43 --> 135,a44 --> 504,a45 --> 63,a46 --> 927,a47 --> 867,a48 --> 915,a49 --> 186,a50 --> 30,a51 --> 939,a52 --> 480,a53 --> 216,a54 --> 411,a55 --> 1002,a56 --> 495,a57 --> 423,a58 --> 561,a59 --> 93,a60 --> 201,a61 --> 420,a62 --> 699,a63 --> 279,a64 --> 396,a65 --> 624,a66 --> 729,a67 --> 309,a68 --> 876,a69 --> 867,a70 --> 540,a71 --> 879,a72 --> 309,a73 --> 285,a74 --> 474,a75 --> 171,a76 --> 390,a77 --> 339,a78 --> 9,a79 --> 21,a80 --> 885,a81 --> 273,a82 --> 756,a83 --> 402,a84 --> 702,a85 --> 927,a86 --> 27,a87 --> 687,a88 --> 549,a89 --> 168,a90 --> 261,a91 --> 168,a92 --> 708,a93 --> 591,a94 --> 450,a95 --> 186,a96 --> 147,a97 --> 783,a98 --> 36,a99 --> 165,a100 --> 363,a101 --> 153,a102 --> 228,a103 --> 807,a104 --> 666,a105 --> 861,a106 --> 768,a107 --> 978,a108 --> 15,a109 --> 699,a110 --> 870,a111 --> 999,a112 --> 771,a113 --> 174,a114 --> 780,a115 --> 435,a116 --> 150,a117 --> 72,a118 --> 90,a119 --> 468,a120 --> 132,a121 --> 546,a122 --> 699,a123 --> 612,a124 --> 588,a125 --> 237,a126 --> 882,a127 --> 162,a128 --> 543,a129 --> 117,a130 --> 21,a131 --> 633,a132 --> 609,a133 --> 534,a134 --> 708,a135 --> 510,a136 --> 54,a137 --> 321,a138 --> 483,a139 --> 483,a140 --> 723,a141 --> 231,a142 --> 459,a143 --> 726,a144 --> 78,a145 --> 180,a146 --> 117,a147 --> 213,a148 --> 555,a149 --> 543,a150 --> 420,a151 --> 495,a152 --> 15,a153 --> 996,a154 --> 864,a155 --> 603,a156 --> 582,a157 --> 678,a158 --> 459,a159 --> 402,a160 --> 909,a161 --> 660,a162 --> 354,a163 --> 780,a164 --> 351,a165 --> 93,a166 --> 405,a167 --> 411,a168 --> 618,a169 --> 966,a170 --> 915,a171 --> 513,a172 --> 327,a173 --> 519,a174 --> 798,a175 --> 396,a176 --> 681,a177 --> 243,a178 --> 102,a179 --> 747,a180 --> 618,a181 --> 855,a182 --> 519,a183 --> 477,a184 --> 615,a185 --> 981,a186 --> 378,a187 --> 234,a188 --> 798,a189 --> 309,a190 --> 420,a191 --> 759,a192 --> 66,a193 --> 675,a194 --> 486,a195 --> 984,a196 --> 156,a197 --> 699,a198 --> 969,a199 --> 696,a200 --> 873,a201 --> 957,a202 --> 456,a203 --> 93,a204 --> 666,a205 --> 522,a206 --> 597,a207 --> 231,a208 --> 729,a209 --> 954,a210 --> 744,a211 --> 786,a212 --> 117,a213 --> 351,a214 --> 963,a215 --> 597,a216 --> 783,a217 --> 399,a218 --> 321,a219 --> 942,a220 --> 237,a221 --> 390,a222 --> 720,a223 --> 978,a224 --> 117,a225 --> 963,a226 --> 708,a227 --> 777,a228 --> 78,a229 --> 33,a230 --> 54,a231 --> 258,a232 --> 459,a233 --> 531,a234 --> 978,a235 --> 453,a236 --> 285,a237 --> 300,a238 --> 390,a239 --> 42,a240 --> 540,a241 --> 603,a242 --> 741,a243 --> 132,a244 --> 858,a245 --> 456,a246 --> 528,a247 --> 825,a248 --> 579,a249 --> 306,a250 --> 534,a251 --> 522,a252 --> 27,a253 --> 717,a254 --> 348,a255 --> 753,a256 --> 87,a257 --> 849,a258 --> 618,a259 --> 708,a260 --> 273,a261 --> 237,a262 --> 372,a263 --> 90,a264 --> 195,a265 --> 843,a266 --> 183,a267 --> 846,a268 --> 831,a269 --> 705,a270 --> 735,a271 --> 924,a272 --> 618,a273 --> 321,a274 --> 297,a275 --> 552,a276 --> 195,a277 --> 246,a278 --> 750,a279 --> 261,a280 --> 579,a281 --> 150,a282 --> 609,a283 --> 552,a284 --> 873,a285 --> 696,a286 --> 504,a287 --> 840,a288 --> 114,a289 --> 207,a290 --> 459,a291 --> 969,a292 --> 579,a293 --> 360,a294 --> 594,a295 --> 222,a296 --> 12,a297 --> 48,a298 --> 60,a299 --> 75,a300 --> 609,a301 --> 936,a302 --> 375,a303 --> 930,a304 --> 795,a305 --> 570,a306 --> 570,a307 --> 261,a308 --> 270,a309 --> 594,a310 --> 285,a311 --> 924,a312 --> 222,a313 --> 966,a314 --> 606,a315 --> 945,a316 --> 414,a317 --> 126,a318 --> 216,a319 --> 582,a320 --> 312,a321 --> 735,a322 --> 354,a323 --> 438,a324 --> 141,a325 --> 564,a326 --> 987,a327 --> 180,a328 --> 897,a329 --> 510,a330 --> 213,a331 --> 87,a332 --> 984,a333 --> 126,a334 --> 372,a335 --> 957,a336 --> 63,a337 --> 801,a338 --> 759,a339 --> 780,a340 --> 951,a341 --> 297,a342 --> 942,a343 --> 84,a344 --> 141,a345 --> 507,a346 --> 753,a347 --> 717,a348 --> 495,a349 --> 408,a350 --> 798,a351 --> 843,a352 --> 162,a353 --> 87,a354 --> 126,a355 --> 888,a356 --> 879,a357 --> 75,a358 --> 666,a359 --> 84,a360 --> 888,a361 --> 822,a362 --> 684,a363 --> 681,a364 --> 936,a365 --> 342,a366 --> 720,a367 --> 945,a368 --> 837,a369 --> 471,a370 --> 42,a371 --> 534,a372 --> 831,a373 --> 12,a374 --> 159,a375 --> 648,a376 --> 735,a377 --> 531,a378 --> 108,a379 --> 129,a380 --> 771,a381 --> 552,a382 --> 72,a383 --> 957,a384 --> 414,a385 --> 630,a386 --> 750,a387 --> 489,a388 --> 981,a389 --> 561,a390 --> 180,a391 --> 708,a392 --> 651,a393 --> 228,a394 --> 462,a395 --> 675,a396 --> 927,a397 --> 363,a398 --> 966,a399 --> 162,a400 --> 24,a401 --> 192,a402 --> 714,a403 --> 120,a404 --> 525,a405 --> 498,a406 --> 978,a407 --> 837,a408 --> 786,a409 --> 831,a410 --> 474,a411 --> 696,a412 --> 21,a413 --> 795,a414 --> 402,a415 --> 357,a416 --> 783,a417 --> 111,a418 --> 606,a419 --> 447,a420 --> 564,a421 --> 474,a422 --> 585,a423 --> 291,a424 --> 543,a425 --> 969,a426 --> 942,a427 --> 30,a428 --> 867,a429 --> 804,a430 --> 762,a431 --> 297,a432 --> 45,a433 --> 246,a434 --> 414,a435 --> 558,a436 --> 21,a437 --> 780,a438 --> 285,a439 --> 693,a440 --> 345,a441 --> 993,a442 --> 723,a443 --> 330,a444 --> 990,a445 --> 849,a446 --> 270,a447 --> 882,a448 --> 315,a449 --> 573,a450 --> 792,a451 --> 381,a452 --> 219,a453 --> 792,a454 --> 780,a455 --> 159,a456 --> 369,a457 --> 345,a458 --> 741,a459 --> 510,a460 --> 288,a461 --> 114,a462 --> 195,a463 --> 630,a464 --> 438,a465 --> 582,a466 --> 96,a467 --> 318,a468 --> 144,a469 --> 573,a470 --> 555,a471 --> 525,a472 --> 276,a473 --> 237,a474 --> 21,a475 --> 573,a476 --> 543,a477 --> 756,a478 --> 906,a479 --> 231,a480 --> 201,a481 --> 213,a482 --> 273,a483 --> 543,a484 --> 543,a485 --> 369,a486 --> 546,a487 --> 387,a488 --> 966,a489 --> 921,a490 --> 135,a491 --> 414,a492 --> 3,a493 --> 180,a494 --> 861,a495 --> 585,a496 --> 411,a497 --> 447,a498 --> 312,a499 --> 336,a500 --> 861,a501 --> 903,a502 --> 375,a503 --> 60,a504 --> 963,a505 --> 720,a506 --> 354,a507 --> 42,a508 --> 660,a509 --> 132,a510 --> 327,a511 --> 495,a512 --> 330,a513 --> 63,a514 --> 960,a515 --> 561,a516 --> 996,a517 --> 549,a518 --> 927,a519 --> 876,a520 --> 780,a521 --> 606,a522 --> 609,a523 --> 618,a524 --> 519,a525 --> 495,a526 --> 423,a527 --> 672,a528 --> 555,a529 --> 600,a530 --> 117,a531 --> 990,a532 --> 450,a533 --> 24,a534 --> 672,a535 --> 231,a536 --> 681,a537 --> 483,a538 --> 654,a539 --> 666,a540 --> 435,a541 --> 609,a542 --> 150,a543 --> 744,a544 --> 624,a545 --> 360,a546 --> 963,a547 --> 942,a548 --> 774,a549 --> 57,a550 --> 504,a551 --> 843,a552 --> 999,a553 --> 462,a554 --> 510,a555 --> 183,a556 --> 225,a557 --> 249,a558 --> 474,a559 --> 282,a560 --> 285,a561 --> 783,a562 --> 180,a563 --> 573,a564 --> 21,a565 --> 612,a566 --> 990,a567 --> 882,a568 --> 198,a569 --> 702,a570 --> 795,a571 --> 654,a572 --> 177,a573 --> 255,a574 --> 795,a575 --> 135,a576 --> 759,a577 --> 183,a578 --> 330,a579 --> 888,a580 --> 441,a581 --> 708,a582 --> 954,a583 --> 432,a584 --> 579,a585 --> 990,a586 --> 831,a587 --> 270,a588 --> 273,a589 --> 6,a590 --> 957,a591 --> 486,a592 --> 24,a593 --> 57,a594 --> 468,a595 --> 99,a596 --> 534,a597 --> 738,a598 --> 609,a599 --> 120,a600 --> 894,a601 --> 987,a602 --> 546,a603 --> 960,a604 --> 342,a605 --> 852,a606 --> 789,a607 --> 555,a608 --> 633,a609 --> 537,a610 --> 63,a611 --> 9,a612 --> 498,a613 --> 264,a614 --> 84,a615 --> 426,a616 --> 156,a617 --> 6,a618 --> 237,a619 --> 471,a620 --> 546,a621 --> 624,a622 --> 153,a623 --> 561,a624 --> 120,a625 --> 786,a626 --> 567,a627 --> 615,a628 --> 783,a629 --> 318,a630 --> 348,a631 --> 150,a632 --> 183,a633 --> 213,a634 --> 378,a635 --> 744,a636 --> 714,a637 --> 180,a638 --> 831,a639 --> 222,a640 --> 966,a641 --> 87,a642 --> 264,a643 --> 693,a644 --> 129,a645 --> 429,a646 --> 582,a647 --> 876,a648 --> 9,a649 --> 117,a650 --> 66,a651 --> 57,a652 --> 105,a653 --> 120,a654 --> 927,a655 --> 675,a656 --> 252,a657 --> 210,a658 --> 495,a659 --> 99,a660 --> 936,a661 --> 237,a662 --> 735,a663 --> 690,a664 --> 540,a665 --> 9,a666 --> 954,a667 --> 288,a668 --> 555,a669 --> 303,a670 --> 162,a671 --> 951,a672 --> 585,a673 --> 609,a674 --> 447,a675 --> 873,a676 --> 795,a677 --> 750,a678 --> 978,a679 --> 738,a680 --> 486,a681 --> 468,a682 --> 885,a683 --> 678,a684 --> 993,a685 --> 42,a686 --> 945,a687 --> 621,a688 --> 765,a689 --> 450,a690 --> 918,a691 --> 426,a692 --> 399,a693 --> 876,a694 --> 828,a695 --> 141,a696 --> 429,a697 --> 702,a698 --> 471,a699 --> 282,a700 --> 621,a701 --> 216,a702 --> 639,a703 --> 231,a704 --> 141,a705 --> 777,a706 --> 453,a707 --> 978,a708 --> 945,a709 --> 702,a710 --> 456,a711 --> 39,a712 --> 705,a713 --> 396,a714 --> 612,a715 --> 783,a716 --> 798,a717 --> 582,a718 --> 384,a719 --> 633,a720 --> 366,a721 --> 354,a722 --> 408,a723 --> 987,a724 --> 429,a725 --> 924,a726 --> 720,a727 --> 429,a728 --> 744,a729 --> 24,a730 --> 840,a731 --> 342,a732 --> 423,a733 --> 876,a734 --> 444,a735 --> 498,a736 --> 282,a737 --> 732,a738 --> 630,a739 --> 819,a740 --> 453,a741 --> 318,a742 --> 639,a743 --> 285,a744 --> 783,a745 --> 645,a746 --> 255,a747 --> 543,a748 --> 690,a749 --> 666,a750 --> 993,a751 --> 255,a752 --> 177,a753 --> 741,a754 --> 504,a755 --> 816,a756 --> 873,a757 --> 216,a758 --> 255,a759 --> 942,a760 --> 984,a761 --> 501,a762 --> 990,a763 --> 693,a764 --> 120,a765 --> 981,a766 --> 753,a767 --> 918,a768 --> 207,a769 --> 459,a770 --> 885,a771 --> 777,a772 --> 51,a773 --> 951,a774 --> 990,a775 --> 783,a776 --> 879,a777 --> 141,a778 --> 264,a779 --> 762,a780 --> 111,a781 --> 681,a782 --> 270,a783 --> 720,a784 --> 315,a785 --> 189,a786 --> 141,a787 --> 93,a788 --> 960,a789 --> 783,a790 --> 408,a791 --> 3,a792 --> 504,a793 --> 666,a794 --> 912,a795 --> 870,a796 --> 615,a797 --> 936,a798 --> 570,a799 --> 360,a800 --> 627,a801 --> 828,a802 --> 33,a803 --> 453,a804 --> 729,a805 --> 648,a806 --> 717,a807 --> 246,a808 --> 801,a809 --> 447,a810 --> 327,a811 --> 969,a812 --> 618,a813 --> 996,a814 --> 378,a815 --> 591,a816 --> 150,a817 --> 639,a818 --> 234,a819 --> 450,a820 --> 201,a821 --> 909,a822 --> 57,a823 --> 876,a824 --> 117,a825 --> 327,a826 --> 681,a827 --> 984,a828 --> 975,a829 --> 48,a830 --> 201,a831 --> 54,a832 --> 228,a833 --> 150,a834 --> 666,a835 --> 687,a836 --> 594,a837 --> 96,a838 --> 945,a839 --> 996,a840 --> 513,a841 --> 351,a842 --> 600,a843 --> 81,a844 --> 114,a845 --> 522,a846 --> 231,a847 --> 336,a848 --> 915,a849 --> 648,a850 --> 576,a851 --> 252,a852 --> 381,a853 --> 948,a854 --> 315,a855 --> 726,a856 --> 981,a857 --> 915,a858 --> 672,a859 --> 141,a860 --> 930,a861 --> 966,a862 --> 396,a863 --> 765,a864 --> 753,a865 --> 321,a866 --> 393,a867 --> 432,a868 --> 414,a869 --> 66,a870 --> 891,a871 --> 966,a872 --> 369,a873 --> 798,a874 --> 48,a875 --> 99,a876 --> 876,a877 --> 156,a878 --> 708,a879 --> 162,a880 --> 966,a881 --> 753,a882 --> 204,a883 --> 408,a884 --> 864,a885 --> 219,a886 --> 414,a887 --> 534,a888 --> 609,a889 --> 270,a890 --> 162,a891 --> 582,a892 --> 543,a893 --> 150,a894 --> 414,a895 --> 897,a896 --> 207,a897 --> 273,a898 --> 522,a899 --> 246,a900 --> 384,a901 --> 336,a902 --> 528,a903 --> 450,a904 --> 645,a905 --> 72,a906 --> 783,a907 --> 591,a908 --> 588,a909 --> 3,a910 --> 132,a911 --> 45,a912 --> 129,a913 --> 621,a914 --> 990,a915 --> 543,a916 --> 153,a917 --> 987,a918 --> 213,a919 --> 891,a920 --> 591,a921 --> 171,a922 --> 738,a923 --> 975,a924 --> 228,a925 --> 747,a926 --> 210,a927 --> 498,a928 --> 258,a929 --> 300,a930 --> 435,a931 --> 294,a932 --> 441,a933 --> 981,a934 --> 525,a935 --> 675,a936 --> 711,a937 --> 63,a938 --> 921,a939 --> 150,a940 --> 147,a941 --> 861,a942 --> 900,a943 --> 78,a944 --> 810,a945 --> 861,a946 --> 942,a947 --> 525,a948 --> 402,a949 --> 591,a950 --> 897,a951 --> 342,a952 --> 183,a953 --> 825,a954 --> 951,a955 --> 339,a956 --> 822,a957 --> 876,a958 --> 630,a959 --> 258,a960 --> 951,a961 --> 966,a962 --> 432,a963 --> 405,a964 --> 279,a965 --> 924,a966 --> 75,a967 --> 912,a968 --> 66,a969 --> 705,a970 --> 417,a971 --> 759,a972 --> 642,a973 --> 756,a974 --> 678,a975 --> 366,a976 --> 507,a977 --> 783,a978 --> 42,a979 --> 336,a980 --> 720,a981 --> 504,a982 --> 978,a983 --> 696,a984 --> 396,a985 --> 93,a986 --> 603,a987 --> 207,a988 --> 864,a989 --> 27,a990 --> 357,a991 --> 321,a992 --> 414,a993 --> 255,a994 --> 636,a995 --> 873,a996 --> 717,a997 --> 294,a998 --> 729,a999 --> 300,a1000 --> 543
)
